200
1000
207
206
206
206
206
204
202
202
201
201
200
199
199
197
195
195
194
194
193
191
190
189
189
189
189
188
188
187
187
185
184
184
182
181
181
180
179
178
178
176
176
175
175
174
173
173
173
172
171
171
168
168
166
166
165
164
164
163
163
163
163
163
161
161
161
160
159
158
158
158
157
157
157
157
156
154
154
153
152
152
151
150
150
150
150
150
149
147
147
147
147
147
146
145
144
144
144
144
143
143
141
141
140
140
140
139
139
138
138
138
138
138
137
137
136
135
135
135
135
135
134
134
133
133
133
133
129
129
129
127
126
126
125
124
123
123
123
121
120
120
119
119
118
118
117
116
116
114
113
111
110
109
109
106
106
104
104
104
103
102
102
101
100
100
99
99
99
99
98
98
97
97
97
95
94
94
93
92
92
91
89
88
88
88
88
87
86
86
85
84
83
81
81
81
80
78
76
76
74
73
